323
45.0 182.0 
45.0 213.0 
55.0 162.0 
60.0 231.0 
60.0 231.0 
70.0 226.0 
85.0 145.0 
60.0 119.0 
75.0 157.0 
80.0 204.0 
80.0 204.0 
80.0 212.0 
100.0 183.0 
100.0 183.0 
95.0 119.0 
100.0 170.0 
85.0 148.0 
90.0 191.0 
45.0 213.0 
45.0 182.0 
60.0 231.0 
60.0 231.0 
70.0 226.0 
110.0 165.0 
75.0 157.0 
80.0 204.0 
80.0 204.0 
80.0 212.0 
100.0 183.0 
100.0 183.0 
95.0 119.0 
100.0 170.0 
85.0 148.0 
90.0 191.0 
45.0 182.0 
45.0 213.0 
60.0 231.0 
60.0 231.0 
70.0 226.0 
75.0 157.0 
80.0 204.0 
80.0 204.0 
80.0 212.0 
100.0 183.0 
100.0 183.0 
95.0 119.0 
100.0 170.0 
140.0 124.0 
90.0 191.0 
100.0 171.0 
45.0 213.0 
45.0 182.0 
55.0 162.0 
60.0 231.0 
60.0 231.0 
70.0 226.0 
85.0 145.0 
60.0 119.0 
75.0 157.0 
80.0 204.0 
80.0 204.0 
85.0 148.0 
100.0 170.0 
85.0 148.0 
90.0 191.0 
80.0 212.0 
45.0 213.0 
45.0 182.0 
40.0 158.0 
60.0 231.0 
70.0 226.0 
85.0 145.0 
80.0 204.0 
80.0 204.0 
90.0 199.0 
85.0 148.0 
100.0 170.0 
85.0 148.0 
90.0 191.0 
125.0 190.0 
55.0 162.0 
45.0 182.0 
45.0 213.0 
60.0 231.0 
60.0 231.0 
70.0 226.0 
75.0 157.0 
95.0 137.0 
80.0 204.0 
80.0 204.0 
80.0 212.0 
100.0 183.0 
100.0 183.0 
100.0 170.0 
85.0 148.0 
70.0 226.0 
45.0 213.0 
45.0 182.0 
60.0 231.0 
60.0 231.0 
40.0 158.0 
70.0 226.0 
70.0 226.0 
85.0 145.0 
75.0 157.0 
80.0 204.0 
80.0 204.0 
80.0 212.0 
100.0 183.0 
100.0 183.0 
100.0 170.0 
85.0 148.0 
45.0 213.0 
45.0 182.0 
60.0 231.0 
60.0 231.0 
70.0 226.0 
85.0 145.0 
75.0 157.0 
80.0 204.0 
80.0 204.0 
80.0 212.0 
100.0 183.0 
100.0 183.0 
95.0 119.0 
100.0 170.0 
85.0 148.0 
90.0 191.0 
45.0 213.0 
45.0 182.0 
55.0 162.0 
60.0 231.0 
60.0 231.0 
70.0 226.0 
75.0 157.0 
80.0 204.0 
80.0 204.0 
80.0 212.0 
100.0 183.0 
100.0 183.0 
100.0 170.0 
85.0 148.0 
90.0 191.0 
75.0 157.0 
45.0 213.0 
55.0 162.0 
45.0 182.0 
60.0 231.0 
70.0 226.0 
55.0 185.0 
80.0 204.0 
80.0 204.0 
80.0 212.0 
100.0 183.0 
100.0 183.0 
95.0 119.0 
100.0 170.0 
140.0 124.0 
75.0 157.0 
85.0 250.0 
45.0 182.0 
60.0 231.0 
40.0 158.0 
70.0 226.0 
70.0 226.0 
70.0 226.0 
75.0 157.0 
80.0 204.0 
80.0 204.0 
80.0 212.0 
85.0 148.0 
100.0 170.0 
85.0 148.0 
75.0 157.0 
45.0 182.0 
45.0 213.0 
55.0 162.0 
60.0 231.0 
40.0 158.0 
60.0 231.0 
70.0 226.0 
70.0 226.0 
90.0 191.0 
70.0 226.0 
75.0 157.0 
75.0 157.0 
80.0 204.0 
80.0 204.0 
80.0 212.0 
85.0 148.0 
100.0 170.0 
85.0 148.0 
55.0 162.0 
45.0 213.0 
60.0 231.0 
40.0 158.0 
60.0 231.0 
70.0 226.0 
70.0 226.0 
90.0 191.0 
75.0 157.0 
75.0 157.0 
80.0 204.0 
80.0 204.0 
80.0 212.0 
85.0 148.0 
100.0 170.0 
85.0 148.0 
40.0 138.0 
45.0 213.0 
55.0 162.0 
45.0 182.0 
60.0 231.0 
40.0 158.0 
60.0 231.0 
70.0 226.0 
70.0 226.0 
110.0 165.0 
85.0 145.0 
75.0 157.0 
80.0 204.0 
80.0 204.0 
80.0 212.0 
85.0 148.0 
100.0 170.0 
85.0 148.0 
45.0 182.0 
55.0 162.0 
45.0 213.0 
60.0 231.0 
40.0 158.0 
60.0 231.0 
70.0 226.0 
70.0 226.0 
90.0 191.0 
75.0 157.0 
75.0 157.0 
80.0 204.0 
80.0 204.0 
80.0 212.0 
85.0 148.0 
100.0 170.0 
85.0 148.0 
55.0 162.0 
45.0 213.0 
40.0 158.0 
60.0 231.0 
60.0 231.0 
70.0 226.0 
70.0 226.0 
75.0 157.0 
80.0 204.0 
80.0 212.0 
80.0 204.0 
80.0 212.0 
85.0 148.0 
100.0 170.0 
85.0 148.0 
75.0 157.0 
45.0 182.0 
45.0 213.0 
55.0 162.0 
40.0 138.0 
60.0 231.0 
40.0 158.0 
60.0 231.0 
70.0 226.0 
70.0 226.0 
70.0 226.0 
90.0 191.0 
75.0 157.0 
75.0 157.0 
75.0 157.0 
80.0 204.0 
80.0 204.0 
80.0 212.0 
85.0 148.0 
100.0 170.0 
85.0 148.0 
45.0 182.0 
60.0 231.0 
40.0 158.0 
70.0 226.0 
70.0 226.0 
75.0 157.0 
80.0 204.0 
80.0 204.0 
80.0 212.0 
85.0 148.0 
100.0 170.0 
85.0 148.0 
75.0 157.0 
55.0 162.0 
45.0 213.0 
60.0 231.0 
40.0 158.0 
60.0 231.0 
70.0 226.0 
70.0 226.0 
90.0 191.0 
85.0 145.0 
110.0 165.0 
75.0 157.0 
80.0 204.0 
80.0 212.0 
85.0 148.0 
100.0 170.0 
85.0 148.0 
45.0 213.0 
60.0 231.0 
40.0 158.0 
60.0 231.0 
70.0 226.0 
70.0 226.0 
85.0 145.0 
110.0 165.0 
75.0 157.0 
80.0 204.0 
80.0 204.0 
80.0 212.0 
85.0 148.0 
100.0 170.0 
85.0 148.0 

0 28 20 21 29 37 65 
0 28 36 44 21 29 65 
0 36 35 43 44 37 65 
0 36 44 43 35 29 28 65 
0 36 44 43 35 28 29 65 
0 36 44 43 34 28 29 65 
0 36 44 35 34 26 65 
0 36 35 27 18 65 
0 36 28 27 18 11 65 
0 36 28 20 12 13 29 65 
0 36 28 20 12 13 29 65 
0 36 28 20 12 14 29 65 
0 36 44 43 33 34 28 65 
0 36 44 43 33 34 28 65 
0 28 27 34 33 43 65 
0 28 20 12 13 14 29 65 
0 28 20 12 4 29 65 
0 36 44 43 34 26 28 65 
0 28 36 44 21 29 65 
0 28 20 21 29 37 65 
0 36 44 43 35 28 29 65 
0 36 44 43 35 29 28 65 
0 36 44 43 34 28 29 65 
0 36 44 43 34 26 18 65 
0 36 28 27 18 11 65 
0 36 28 20 12 13 29 65 
0 36 28 20 12 13 29 65 
0 36 28 20 12 14 29 65 
0 36 44 43 33 34 28 65 
0 36 44 43 33 34 28 65 
0 28 27 34 33 43 65 
0 28 20 12 13 14 29 65 
0 28 20 12 4 29 65 
0 36 44 43 34 26 28 65 
0 28 20 21 29 37 65 
0 28 36 44 21 29 65 
0 36 44 43 35 28 29 65 
0 36 44 43 35 29 28 65 
0 36 44 43 34 28 29 65 
0 36 28 27 18 11 65 
0 36 28 20 12 13 29 65 
0 36 28 20 12 13 29 65 
0 36 28 20 12 14 29 65 
0 36 44 43 33 34 28 65 
0 36 44 43 33 34 28 65 
0 28 27 34 33 43 65 
0 28 20 12 13 14 29 65 
0 36 35 34 33 25 18 65 
0 36 44 43 34 26 28 65 
0 36 28 27 26 18 11 65 
0 28 36 44 21 29 65 
0 28 20 21 29 37 65 
0 36 35 43 44 37 65 
0 36 44 43 35 28 29 65 
0 36 44 43 35 29 28 65 
0 36 44 43 34 28 29 65 
0 36 44 35 34 26 65 
0 36 35 27 18 65 
0 36 28 27 18 11 65 
0 36 28 20 12 13 29 65 
0 36 28 20 12 13 29 65 
0 36 44 53 54 38 65 
0 28 20 12 13 14 29 65 
0 28 20 12 4 29 65 
0 36 44 43 34 26 28 65 
0 36 28 20 12 14 29 65 
0 28 36 44 21 29 65 
0 28 20 21 29 37 65 
0 28 36 44 43 65 
0 36 44 43 35 28 29 65 
0 36 44 43 34 28 29 65 
0 36 44 35 34 26 65 
0 36 28 20 12 13 29 65 
0 36 28 20 12 13 29 65 
0 36 28 20 12 4 29 65 
0 36 44 53 54 38 65 
0 28 20 12 13 14 29 65 
0 28 20 12 4 29 65 
0 36 44 43 34 26 28 65 
0 36 35 34 26 18 11 28 65 
0 36 35 43 44 37 65 
0 28 20 21 29 37 65 
0 28 36 44 21 29 65 
0 36 44 43 35 28 29 65 
0 36 44 43 35 29 28 65 
0 36 44 43 34 28 29 65 
0 36 28 27 18 11 65 
0 36 44 35 34 33 65 
0 36 28 20 12 13 29 65 
0 36 28 20 12 13 29 65 
0 36 28 20 12 14 29 65 
0 36 44 43 33 34 28 65 
0 36 44 43 33 34 28 65 
0 28 20 12 13 14 29 65 
0 28 20 12 4 29 65 
0 36 44 43 34 28 29 65 
0 28 36 44 21 29 65 
0 28 20 21 29 37 65 
0 36 44 43 35 28 29 65 
0 36 44 43 35 29 28 65 
0 28 36 44 43 65 
0 36 44 43 34 28 29 65 
0 36 44 43 34 28 29 65 
0 36 44 35 34 26 65 
0 36 28 27 18 11 65 
0 36 28 20 12 13 29 65 
0 36 28 20 12 13 29 65 
0 36 28 20 12 14 29 65 
0 36 44 43 33 34 28 65 
0 36 44 43 33 34 28 65 
0 28 20 12 13 14 29 65 
0 28 20 12 4 29 65 
0 28 36 44 21 29 65 
0 28 20 21 29 37 65 
0 36 44 43 35 28 29 65 
0 36 44 43 35 29 28 65 
0 36 44 43 34 28 29 65 
0 36 44 35 34 26 65 
0 36 28 27 18 11 65 
0 36 28 20 12 13 29 65 
0 36 28 20 12 13 29 65 
0 36 28 20 12 14 29 65 
0 36 44 43 33 34 28 65 
0 36 44 43 33 34 28 65 
0 28 27 34 33 43 65 
0 28 20 12 13 14 29 65 
0 28 20 12 4 29 65 
0 36 44 43 34 26 28 65 
0 28 36 44 21 29 65 
0 28 20 21 29 37 65 
0 36 35 43 44 37 65 
0 36 44 43 35 28 29 65 
0 36 44 43 35 29 28 65 
0 36 44 43 34 28 29 65 
0 36 28 27 18 11 65 
0 36 28 20 12 13 29 65 
0 36 28 20 12 13 29 65 
0 36 28 20 12 14 29 65 
0 36 44 43 33 34 28 65 
0 36 44 43 33 34 28 65 
0 28 20 12 13 14 29 65 
0 28 20 12 4 29 65 
0 36 44 43 34 26 28 65 
0 36 28 27 18 11 65 
0 28 36 44 21 29 65 
0 36 35 43 44 37 65 
0 28 20 21 29 37 65 
0 36 44 43 35 28 29 65 
0 36 44 43 34 28 29 65 
0 36 44 43 35 29 65 
0 36 28 20 12 13 29 65 
0 36 28 20 12 13 29 65 
0 36 28 20 12 14 29 65 
0 36 44 43 33 34 28 65 
0 36 44 43 33 34 28 65 
0 28 27 34 33 43 65 
0 28 20 12 13 14 29 65 
0 36 35 34 33 25 18 65 
0 36 28 27 18 11 65 
0 36 44 43 34 35 28 29 65 
0 28 20 21 29 37 65 
0 36 44 43 35 28 29 65 
0 28 36 44 43 65 
0 36 44 43 34 28 29 65 
0 36 44 43 34 28 29 65 
0 36 44 43 34 28 29 65 
0 36 28 27 18 11 65 
0 36 28 20 12 13 29 65 
0 36 28 20 12 13 29 65 
0 36 28 20 12 14 29 65 
0 36 44 53 54 38 65 
0 28 20 12 13 14 29 65 
0 28 20 12 4 29 65 
0 36 28 27 18 11 65 
0 28 20 21 29 37 65 
0 28 36 44 21 29 65 
0 36 35 43 44 37 65 
0 36 44 43 35 28 29 65 
0 28 36 44 43 65 
0 36 44 43 35 29 28 65 
0 36 44 43 34 28 29 65 
0 36 44 43 34 28 29 65 
0 36 44 43 34 26 28 65 
0 36 44 43 34 28 29 65 
0 36 28 27 18 11 65 
0 36 28 27 18 11 65 
0 36 28 20 12 13 29 65 
0 36 28 20 12 13 29 65 
0 36 28 20 12 14 29 65 
0 36 44 53 54 38 65 
0 28 20 12 13 14 29 65 
0 28 20 12 4 29 65 
0 36 35 43 44 37 65 
0 28 36 44 21 29 65 
0 36 44 43 35 28 29 65 
0 28 36 44 43 65 
0 36 44 43 35 29 28 65 
0 36 44 43 34 28 29 65 
0 36 44 43 34 28 29 65 
0 36 44 43 34 26 28 65 
0 36 28 27 18 11 65 
0 36 28 27 18 11 65 
0 36 28 20 12 13 29 65 
0 36 28 20 12 13 29 65 
0 36 28 20 12 14 29 65 
0 36 44 53 54 38 65 
0 28 20 12 13 14 29 65 
0 28 20 12 4 29 65 
0 37 36 44 43 65 
0 28 36 44 21 29 65 
0 36 35 43 44 37 65 
0 28 20 21 29 37 65 
0 36 44 43 35 28 29 65 
0 28 36 44 43 65 
0 36 44 43 35 29 28 65 
0 36 44 43 34 28 29 65 
0 36 44 43 34 28 29 65 
0 36 44 43 34 26 18 65 
0 36 44 35 34 26 65 
0 36 28 27 18 11 65 
0 36 28 20 12 13 29 65 
0 36 28 20 12 13 29 65 
0 36 28 20 12 14 29 65 
0 36 44 53 54 38 65 
0 28 20 12 13 14 29 65 
0 28 20 12 4 29 65 
0 28 20 21 29 37 65 
0 36 35 43 44 37 65 
0 28 36 44 21 29 65 
0 36 44 43 35 28 29 65 
0 28 36 44 43 65 
0 36 44 43 35 29 28 65 
0 36 44 43 34 28 29 65 
0 36 44 43 34 28 29 65 
0 36 44 43 34 26 28 65 
0 36 28 27 18 11 65 
0 36 28 27 18 11 65 
0 36 28 20 12 13 29 65 
0 36 28 20 12 13 29 65 
0 36 28 20 12 14 29 65 
0 36 44 53 54 38 65 
0 28 20 12 13 14 29 65 
0 28 20 12 4 29 65 
0 36 35 43 44 37 65 
0 28 36 44 21 29 65 
0 28 36 44 43 65 
0 36 44 43 35 28 29 65 
0 36 44 43 35 29 28 65 
0 36 44 43 34 28 29 65 
0 36 44 43 34 28 29 65 
0 36 28 27 18 11 65 
0 36 28 20 12 13 29 65 
0 36 28 20 12 14 29 65 
0 36 28 20 12 13 29 65 
0 36 28 20 12 14 29 65 
0 36 44 53 54 38 65 
0 28 20 12 13 14 29 65 
0 28 20 12 4 29 65 
0 36 28 27 18 11 65 
0 28 20 21 29 37 65 
0 28 36 44 21 29 65 
0 36 35 43 44 37 65 
0 37 36 44 43 65 
0 36 44 43 35 28 29 65 
0 28 36 44 43 65 
0 36 44 43 35 29 28 65 
0 36 44 43 34 28 29 65 
0 36 44 43 34 28 29 65 
0 36 44 43 34 28 29 65 
0 36 44 43 34 26 28 65 
0 36 28 27 18 11 65 
0 36 28 27 18 11 65 
0 36 28 27 18 11 65 
0 36 28 20 12 13 29 65 
0 36 28 20 12 13 29 65 
0 36 28 20 12 14 29 65 
0 36 44 53 54 38 65 
0 28 20 12 13 14 29 65 
0 28 20 12 4 29 65 
0 28 20 21 29 37 65 
0 36 44 43 35 28 29 65 
0 28 36 44 43 65 
0 36 44 43 34 28 29 65 
0 36 44 43 34 28 29 65 
0 36 28 27 18 11 65 
0 36 28 20 12 13 29 65 
0 36 28 20 12 13 29 65 
0 36 28 20 12 14 29 65 
0 36 44 53 54 38 65 
0 28 20 12 13 14 29 65 
0 28 20 12 4 29 65 
0 36 28 27 18 11 65 
0 36 35 43 44 37 65 
0 28 36 44 21 29 65 
0 36 44 43 35 28 29 65 
0 28 36 44 43 65 
0 36 44 43 35 29 28 65 
0 36 44 43 34 28 29 65 
0 36 44 43 34 28 29 65 
0 36 44 43 34 26 28 65 
0 36 44 35 34 26 65 
0 36 44 43 34 26 18 65 
0 36 28 27 18 11 65 
0 36 28 20 12 13 29 65 
0 36 28 20 12 14 29 65 
0 36 44 53 54 38 65 
0 28 20 12 13 14 29 65 
0 28 20 12 4 29 65 
0 28 36 44 21 29 65 
0 36 44 43 35 28 29 65 
0 28 36 44 43 65 
0 36 44 43 35 29 28 65 
0 36 44 43 34 28 29 65 
0 36 44 43 34 28 29 65 
0 36 44 35 34 26 65 
0 36 44 43 34 26 18 65 
0 36 28 27 18 11 65 
0 36 28 20 12 13 29 65 
0 36 28 20 12 13 29 65 
0 36 28 20 12 14 29 65 
0 36 44 53 54 38 65 
0 28 20 12 13 14 29 65 
0 28 20 12 4 29 65 
